% Instancia generada para Grupo 5
% Diámetros: [75, 100, 150] mm
% Capacidades: [795, 1414, 3181] l/min
% Demanda total: 3469 l/min
% Costos tipo a: 835, tipo b: 947
% Semilla: 935547

nP = 4;
nT = 16;
nC1 = 10;
nC2 = 37;
N = 67;

nA = 594;
arc_from = [1, 1, 1, 1, 1, 1, 1, 1, 1, 1, 1, 1, 1, 1, 1, 1, 2, 2, 2, 2, 2, 2, 2, 2, 2, 2, 2, 2, 2, 2, 2, 2, 3, 3, 3, 3, 3, 3, 3, 3, 3, 3, 3, 3, 3, 3, 3, 3, 4, 4, 4, 4, 4, 4, 4, 4, 4, 4, 4, 4, 4, 4, 4, 4, 5, 5, 5, 5, 5, 5, 5, 5, 5, 5, 6, 6, 6, 6, 6, 6, 6, 6, 6, 6, 7, 7, 7, 7, 7, 7, 7, 7, 7, 7, 8, 8, 8, 8, 8, 8, 8, 8, 8, 8, 9, 9, 9, 9, 9, 9, 9, 9, 9, 9, 10, 10, 10, 10, 10, 10, 10, 10, 10, 10, 11, 11, 11, 11, 11, 11, 11, 11, 11, 11, 12, 12, 12, 12, 12, 12, 12, 12, 12, 12, 13, 13, 13, 13, 13, 13, 13, 13, 13, 13, 14, 14, 14, 14, 14, 14, 14, 14, 14, 14, 15, 15, 15, 15, 15, 15, 15, 15, 15, 15, 16, 16, 16, 16, 16, 16, 16, 16, 16, 16, 17, 17, 17, 17, 17, 17, 17, 17, 17, 17, 18, 18, 18, 18, 18, 18, 18, 18, 18, 18, 19, 19, 19, 19, 19, 19, 19, 19, 19, 19, 20, 20, 20, 20, 20, 20, 20, 20, 20, 20, 21, 21, 21, 21, 21, 21, 21, 21, 21, 21, 21, 21, 21, 21, 21, 21, 21, 21, 21, 21, 21, 21, 21, 21, 21, 21, 21, 21, 21, 21, 21, 21, 21, 21, 21, 21, 21, 22, 22, 22, 22, 22, 22, 22, 22, 22, 22, 22, 22, 22, 22, 22, 22, 22, 22, 22, 22, 22, 22, 22, 22, 22, 22, 22, 22, 22, 22, 22, 22, 22, 22, 22, 22, 22, 23, 23, 23, 23, 23, 23, 23, 23, 23, 23, 23, 23, 23, 23, 23, 23, 23, 23, 23, 23, 23, 23, 23, 23, 23, 23, 23, 23, 23, 23, 23, 23, 23, 23, 23, 23, 23, 24, 24, 24, 24, 24, 24, 24, 24, 24, 24, 24, 24, 24, 24, 24, 24, 24, 24, 24, 24, 24, 24, 24, 24, 24, 24, 24, 24, 24, 24, 24, 24, 24, 24, 24, 24, 24, 25, 25, 25, 25, 25, 25, 25, 25, 25, 25, 25, 25, 25, 25, 25, 25, 25, 25, 25, 25, 25, 25, 25, 25, 25, 25, 25, 25, 25, 25, 25, 25, 25, 25, 25, 25, 25, 26, 26, 26, 26, 26, 26, 26, 26, 26, 26, 26, 26, 26, 26, 26, 26, 26, 26, 26, 26, 26, 26, 26, 26, 26, 26, 26, 26, 26, 26, 26, 26, 26, 26, 26, 26, 26, 27, 27, 27, 27, 27, 27, 27, 27, 27, 27, 27, 27, 27, 27, 27, 27, 27, 27, 27, 27, 27, 27, 27, 27, 27, 27, 27, 27, 27, 27, 27, 27, 27, 27, 27, 27, 27, 28, 28, 28, 28, 28, 28, 28, 28, 28, 28, 28, 28, 28, 28, 28, 28, 28, 28, 28, 28, 28, 28, 28, 28, 28, 28, 28, 28, 28, 28, 28, 28, 28, 28, 28, 28, 28, 29, 29, 29, 29, 29, 29, 29, 29, 29, 29, 29, 29, 29, 29, 29, 29, 29, 29, 29, 29, 29, 29, 29, 29, 29, 29, 29, 29, 29, 29, 29, 29, 29, 29, 29, 29, 29, 30, 30, 30, 30, 30, 30, 30, 30, 30, 30, 30, 30, 30, 30, 30, 30, 30, 30, 30, 30, 30, 30, 30, 30, 30, 30, 30, 30, 30, 30, 30, 30, 30, 30, 30, 30, 30];
arc_to   = [5, 6, 7, 8, 9, 10, 11, 12, 13, 14, 15, 16, 17, 18, 19, 20, 5, 6, 7, 8, 9, 10, 11, 12, 13, 14, 15, 16, 17, 18, 19, 20, 5, 6, 7, 8, 9, 10, 11, 12, 13, 14, 15, 16, 17, 18, 19, 20, 5, 6, 7, 8, 9, 10, 11, 12, 13, 14, 15, 16, 17, 18, 19, 20, 21, 22, 23, 24, 25, 26, 27, 28, 29, 30, 21, 22, 23, 24, 25, 26, 27, 28, 29, 30, 21, 22, 23, 24, 25, 26, 27, 28, 29, 30, 21, 22, 23, 24, 25, 26, 27, 28, 29, 30, 21, 22, 23, 24, 25, 26, 27, 28, 29, 30, 21, 22, 23, 24, 25, 26, 27, 28, 29, 30, 21, 22, 23, 24, 25, 26, 27, 28, 29, 30, 21, 22, 23, 24, 25, 26, 27, 28, 29, 30, 21, 22, 23, 24, 25, 26, 27, 28, 29, 30, 21, 22, 23, 24, 25, 26, 27, 28, 29, 30, 21, 22, 23, 24, 25, 26, 27, 28, 29, 30, 21, 22, 23, 24, 25, 26, 27, 28, 29, 30, 21, 22, 23, 24, 25, 26, 27, 28, 29, 30, 21, 22, 23, 24, 25, 26, 27, 28, 29, 30, 21, 22, 23, 24, 25, 26, 27, 28, 29, 30, 21, 22, 23, 24, 25, 26, 27, 28, 29, 30, 31, 32, 33, 34, 35, 36, 37, 38, 39, 40, 41, 42, 43, 44, 45, 46, 47, 48, 49, 50, 51, 52, 53, 54, 55, 56, 57, 58, 59, 60, 61, 62, 63, 64, 65, 66, 67, 31, 32, 33, 34, 35, 36, 37, 38, 39, 40, 41, 42, 43, 44, 45, 46, 47, 48, 49, 50, 51, 52, 53, 54, 55, 56, 57, 58, 59, 60, 61, 62, 63, 64, 65, 66, 67, 31, 32, 33, 34, 35, 36, 37, 38, 39, 40, 41, 42, 43, 44, 45, 46, 47, 48, 49, 50, 51, 52, 53, 54, 55, 56, 57, 58, 59, 60, 61, 62, 63, 64, 65, 66, 67, 31, 32, 33, 34, 35, 36, 37, 38, 39, 40, 41, 42, 43, 44, 45, 46, 47, 48, 49, 50, 51, 52, 53, 54, 55, 56, 57, 58, 59, 60, 61, 62, 63, 64, 65, 66, 67, 31, 32, 33, 34, 35, 36, 37, 38, 39, 40, 41, 42, 43, 44, 45, 46, 47, 48, 49, 50, 51, 52, 53, 54, 55, 56, 57, 58, 59, 60, 61, 62, 63, 64, 65, 66, 67, 31, 32, 33, 34, 35, 36, 37, 38, 39, 40, 41, 42, 43, 44, 45, 46, 47, 48, 49, 50, 51, 52, 53, 54, 55, 56, 57, 58, 59, 60, 61, 62, 63, 64, 65, 66, 67, 31, 32, 33, 34, 35, 36, 37, 38, 39, 40, 41, 42, 43, 44, 45, 46, 47, 48, 49, 50, 51, 52, 53, 54, 55, 56, 57, 58, 59, 60, 61, 62, 63, 64, 65, 66, 67, 31, 32, 33, 34, 35, 36, 37, 38, 39, 40, 41, 42, 43, 44, 45, 46, 47, 48, 49, 50, 51, 52, 53, 54, 55, 56, 57, 58, 59, 60, 61, 62, 63, 64, 65, 66, 67, 31, 32, 33, 34, 35, 36, 37, 38, 39, 40, 41, 42, 43, 44, 45, 46, 47, 48, 49, 50, 51, 52, 53, 54, 55, 56, 57, 58, 59, 60, 61, 62, 63, 64, 65, 66, 67, 31, 32, 33, 34, 35, 36, 37, 38, 39, 40, 41, 42, 43, 44, 45, 46, 47, 48, 49, 50, 51, 52, 53, 54, 55, 56, 57, 58, 59, 60, 61, 62, 63, 64, 65, 66, 67];

demand = [0, 0, 0, 0, 0, 0, 0, 0, 0, 0, 0, 0, 0, 0, 0, 0, 0, 0, 0, 0, 94, 98, 76, 77, 64, 63, 64, 82, 83, 96, 93, 49, 62, 86, 84, 55, 100, 67, 97, 45, 55, 98, 60, 63, 44, 81, 86, 57, 91, 54, 71, 88, 55, 83, 76, 44, 73, 62, 92, 40, 58, 91, 89, 99, 92, 46, 86];

install_cost = array2d(1..594, 1..3, [50, 24, 32, 20, 24, 32, 50, 24, 78, 20, 24, 32, 20, 24, 78, 50, 62, 32, 50, 62, 78, 20, 24, 78, 20, 24, 32, 50, 62, 32, 20, 62, 78, 20, 62, 32, 50, 24, 78, 20, 24, 78, 20, 24, 78, 50, 62, 32, 50, 24, 78, 50, 62, 32, 20, 62, 32, 20, 24, 32, 20, 62, 78, 20, 24, 78, 50, 24, 78, 20, 24, 32, 50, 62, 32, 50, 62, 78, 20, 24, 32, 50, 24, 78, 20, 62, 78, 50, 24, 78, 20, 62, 78, 50, 24, 32, 50, 24, 32, 20, 24, 78, 50, 24, 32, 50, 62, 78, 50, 62, 32, 50, 62, 78, 50, 62, 32, 50, 24, 78, 20, 62, 32, 50, 62, 78, 50, 62, 32, 20, 24, 78, 50, 62, 32, 50, 62, 78, 50, 62, 78, 20, 24, 78, 20, 62, 78, 20, 24, 78, 50, 24, 32, 20, 62, 32, 50, 24, 32, 50, 62, 78, 50, 24, 78, 20, 62, 78, 20, 62, 32, 50, 24, 32, 20, 62, 78, 50, 24, 78, 50, 24, 78, 20, 24, 78, 20, 24, 78, 20, 24, 32, 20, 24, 78, 50, 24, 78, 20, 24, 32, 20, 62, 78, 50, 62, 32, 50, 62, 78, 50, 62, 32, 50, 24, 32, 50, 24, 32, 50, 24, 78, 50, 24, 78, 50, 62, 78, 20, 62, 78, 50, 62, 78, 20, 62, 78, 50, 24, 32, 50, 62, 32, 20, 62, 78, 50, 24, 78, 20, 24, 32, 20, 24, 78, 20, 24, 78, 20, 62, 78, 20, 24, 78, 20, 24, 32, 50, 24, 78, 20, 62, 32, 50, 62, 78, 50, 62, 32, 50, 62, 78, 50, 62, 32, 50, 62, 32, 20, 62, 78, 50, 24, 32, 20, 62, 32, 50, 62, 32, 50, 62, 78, 20, 62, 32, 20, 62, 78, 50, 62, 32, 20, 24, 78, 20, 62, 32, 20, 24, 32, 20, 62, 78, 20, 62, 32, 50, 62, 78, 20, 62, 32, 20, 62, 78, 20, 24, 78, 20, 62, 78, 50, 24, 78, 50, 24, 32, 20, 62, 32, 20, 62, 32, 50, 62, 32, 50, 62, 78, 50, 24, 78, 20, 62, 78, 50, 24, 32, 50, 24, 32, 50, 24, 32, 20, 24, 78, 20, 24, 78, 50, 62, 32, 20, 62, 78, 50, 24, 78, 20, 24, 32, 20, 24, 32, 20, 62, 32, 50, 62, 32, 20, 24, 78, 50, 62, 78, 20, 24, 78, 20, 62, 32, 20, 62, 32, 50, 62, 32, 20, 24, 32, 20, 62, 78, 20, 24, 32, 20, 62, 78, 50, 24, 78, 20, 62, 32, 50, 24, 78, 20, 24, 32, 20, 24, 78, 20, 62, 32, 50, 24, 32, 50, 24, 32, 50, 24, 78, 20, 24, 78, 20, 24, 78, 50, 62, 32, 20, 62, 32, 50, 62, 78, 50, 62, 78, 50, 62, 32, 50, 62, 78, 20, 62, 32, 20, 24, 32, 20, 24, 32, 50, 24, 78, 20, 62, 32, 20, 24, 32, 20, 24, 78, 20, 62, 32, 20, 24, 78, 50, 62, 78, 50, 62, 32, 50, 62, 78, 50, 24, 78, 20, 62, 78, 50, 24, 32, 20, 24, 32, 50, 62, 78, 50, 62, 78, 20, 62, 32, 20, 62, 78, 20, 62, 32, 20, 62, 78, 20, 62, 78, 20, 24, 32, 50, 24, 32, 20, 62, 32, 50, 24, 78, 50, 62, 78, 50, 62, 78, 50, 24, 78, 50, 24, 78, 50, 24, 78, 50, 24, 78, 20, 24, 32, 20, 62, 32, 20, 24, 78, 50, 62, 32, 50, 24, 78, 50, 24, 32, 50, 24, 78, 50, 24, 32, 20, 62, 78, 20, 24, 32, 20, 24, 32, 20, 62, 78, 20, 24, 78, 50, 62, 32, 50, 24, 32, 20, 62, 78, 50, 62, 78, 20, 24, 78, 20, 24, 78, 20, 24, 78, 20, 24, 78, 20, 62, 78, 20, 24, 32, 20, 62, 32, 20, 24, 32, 20, 62, 78, 20, 62, 32, 50, 62, 78, 50, 62, 78, 50, 24, 78, 20, 62, 78, 20, 24, 32, 20, 62, 78, 50, 24, 32, 20, 62, 78, 50, 62, 78, 20, 24, 32, 20, 62, 78, 20, 62, 32, 50, 62, 32, 50, 24, 32, 20, 24, 78, 50, 24, 32, 20, 62, 78, 50, 62, 32, 50, 62, 32, 50, 62, 78, 20, 62, 78, 50, 62, 32, 20, 24, 32, 20, 24, 78, 50, 24, 32, 50, 62, 78, 50, 24, 78, 50, 62, 78, 20, 24, 32, 20, 24, 32, 20, 62, 32, 20, 62, 78, 50, 24, 32, 20, 24, 78, 50, 62, 78, 50, 62, 32, 50, 24, 78, 50, 62, 78, 20, 24, 78, 20, 62, 78, 20, 62, 78, 50, 62, 78, 20, 62, 32, 50, 62, 78, 50, 24, 78, 50, 62, 32, 20, 62, 78, 50, 62, 78, 50, 24, 32, 20, 24, 78, 20, 24, 78, 20, 62, 78, 20, 62, 78, 20, 24, 78, 20, 62, 32, 20, 62, 32, 50, 62, 78, 50, 62, 32, 50, 62, 78, 50, 62, 32, 20, 62, 32, 50, 24, 32, 20, 24, 32, 20, 24, 78, 50, 24, 78, 50, 62, 32, 20, 62, 32, 50, 24, 32, 50, 24, 32, 50, 62, 78, 50, 24, 32, 50, 24, 78, 50, 62, 32, 20, 24, 78, 20, 62, 32, 50, 62, 78, 20, 62, 78, 20, 24, 78, 50, 62, 78, 20, 24, 78, 50, 62, 78, 20, 24, 32, 50, 62, 78, 20, 24, 32, 50, 62, 32, 20, 62, 78, 50, 24, 32, 20, 62, 32, 20, 62, 32, 20, 62, 32, 50, 62, 78, 50, 62, 78, 50, 62, 78, 50, 62, 32, 20, 62, 32, 50, 62, 78, 20, 24, 78, 50, 62, 78, 50, 62, 32, 50, 62, 78, 20, 24, 78, 50, 24, 32, 50, 24, 78, 50, 24, 78, 20, 62, 78, 20, 24, 32, 20, 62, 78, 20, 24, 78, 50, 62, 32, 50, 62, 32, 50, 24, 78, 50, 24, 32, 20, 62, 78, 20, 62, 78, 20, 62, 78, 50, 24, 32, 50, 62, 78, 50, 24, 78, 20, 24, 78, 50, 24, 78, 50, 24, 78, 20, 24, 78, 20, 24, 32, 50, 24, 78, 20, 62, 78, 50, 24, 78, 20, 24, 78, 20, 62, 78, 50, 24, 78, 20, 62, 32, 20, 62, 78, 50, 24, 32, 20, 62, 78, 50, 24, 32, 20, 24, 78, 20, 62, 32, 50, 62, 78, 50, 62, 78, 50, 24, 32, 20, 24, 78, 50, 24, 32, 50, 62, 32, 20, 24, 78, 20, 62, 32, 50, 24, 78, 20, 62, 78, 50, 24, 32, 20, 62, 78, 50, 62, 78, 50, 24, 78, 50, 62, 78, 50, 24, 78, 50, 62, 78, 20, 24, 78, 20, 24, 78, 20, 62, 32, 20, 62, 32, 20, 62, 78, 20, 24, 32, 50, 62, 32, 50, 62, 78, 50, 62, 32, 50, 24, 32, 20, 62, 32, 20, 24, 78, 20, 62, 78, 50, 24, 32, 20, 24, 78, 50, 24, 78, 20, 62, 32, 20, 62, 78, 50, 62, 78, 20, 62, 78, 50, 62, 78, 50, 62, 78, 20, 62, 32, 50, 62, 78, 20, 24, 32, 50, 62, 32, 50, 62, 78, 20, 62, 78, 20, 62, 78, 20, 24, 32, 50, 62, 78, 50, 62, 78, 50, 62, 78, 50, 62, 78, 50, 24, 78, 50, 62, 32, 50, 24, 78, 50, 24, 78, 20, 24, 78, 20, 24, 78, 50, 62, 32, 50, 62, 78, 50, 24, 78, 20, 24, 78, 20, 24, 32, 50, 24, 32, 50, 24, 32, 50, 62, 78, 20, 24, 78, 50, 24, 32, 50, 62, 78, 20, 62, 78, 20, 24, 78, 20, 24, 32, 50, 62, 32, 50, 62, 78, 50, 24, 78, 20, 24, 78, 20, 62, 32, 20, 24, 78, 20, 62, 32, 20, 62, 78, 20, 62, 78, 50, 62, 32, 50, 24, 32, 20, 24, 32, 50, 62, 32, 20, 62, 78, 20, 24, 32, 50, 62, 78, 20, 24, 78, 20, 24, 32, 20, 62, 32, 20, 24, 32, 20, 24, 78, 50, 62, 32, 50, 24, 78, 20, 62, 78, 20, 62, 78, 50, 24, 78, 50, 24, 78, 50, 62, 32, 20, 24, 78, 20, 62, 32, 50, 62, 78, 20, 24, 78, 20, 24, 32, 20, 24, 78, 20, 24, 32, 50, 62, 78, 50, 24, 32, 20, 62, 32, 20, 62, 32, 20, 24, 32, 20, 24, 78, 20, 62, 78, 20, 24, 78, 50, 62, 78, 50, 62, 78, 20, 24, 78, 20, 24, 32, 20, 24, 78, 50, 62, 78, 50, 62, 78, 50, 24, 78, 50, 62, 32, 20, 62, 78, 20, 62, 78, 20, 62, 78, 50, 62, 32, 50, 62, 78, 20, 62, 78, 20, 24, 32, 50, 62, 32, 50, 62, 32, 20, 24, 32, 50, 62, 32, 20, 24, 32, 20, 24, 78, 50, 62, 32, 50, 62, 32, 20, 62, 32, 20, 24, 78, 50, 62, 78, 20, 24, 32, 50, 24, 32, 20, 24, 32, 20, 24, 32, 20, 62, 78, 50, 24, 32, 20, 62, 78, 20, 24, 78, 50, 62, 78, 20, 24, 78, 20, 24, 78, 20, 62, 78, 20, 24, 32, 50, 62, 32, 20, 62, 78, 50, 62, 78, 50, 24, 78, 20, 62, 78, 50, 62, 78, 20, 24, 32, 20, 24, 78, 20, 62, 32, 50, 62, 78, 50, 62, 78, 50, 62, 32, 20, 62, 78, 50, 24, 32, 20, 62, 32, 50, 62, 78, 20, 62, 78, 20, 62, 32, 50, 24, 78, 50, 62, 32, 20, 24, 78, 20, 62, 32, 20, 24, 78, 20, 24, 78, 50, 24, 78, 50, 62, 78, 20, 62, 32, 20, 24, 32, 50, 62, 78, 20, 62, 32, 50, 24, 78, 20, 24, 78, 20, 24, 78, 50, 62, 32, 50, 24, 78, 50, 62, 32, 20, 24, 32, 20, 62, 78, 20, 62, 78, 20, 62, 32, 50, 62, 32, 20, 62, 32, 50, 62, 32, 20, 62, 32, 20, 24, 78, 50, 24, 32, 50, 62, 32, 50, 62, 78, 20, 24, 32, 50, 62, 32, 20, 24, 78, 50, 62, 78, 20, 24, 78, 20, 62, 32, 50, 62, 78, 50, 62, 78, 50, 62, 78, 20, 62, 78, 20, 24, 78, 20, 62, 78, 50, 62, 32, 20, 62, 78, 50, 62, 32, 50, 24, 32, 20, 24, 32, 50, 62, 32, 20, 24, 78, 20, 24, 78, 50, 24, 78, 20, 62, 32, 20, 24, 32, 20, 24, 78, 20, 24, 32, 50, 24, 78, 20, 62, 32, 50, 24, 78, 50, 62, 78, 50, 62, 32, 50, 62, 78, 50, 24, 78, 20, 24, 78, 50, 24, 78, 50, 62, 78]);
trans_cost   = [6.43, 7.69, 5.7, 3.66, 7.36, 7.66, 11.26, 6.77, 7.52, 7.39, 10.88, 6.2, 11.64, 10.63, 16.4, 6.6, 11.8, 9.14, 10.31, 8.17, 7.42, 9.02, 10.73, 9.72, 6.64, 8.82, 9.74, 9.9, 9.92, 5.01, 5.22, 3.79, 8.89, 7.48, 5.04, 7.96, 8.41, 9.67, 8.12, 7.56, 6.25, 6.21, 9.87, 8.79, 6.89, 9.43, 5.74, 9.52, 10.82, 6.34, 10.35, 9.85, 5.49, 6.66, 8.09, 9.37, 7.34, 11.69, 6.54, 4.86, 6.89, 6.4, 8.98, 6.82, 5.98, 5.12, 7.05, 9.78, 6.64, 5.6, 6.73, 5.81, 7.83, 6.76, 3.1, 6.57, 10.07, 7.61, 7.62, 4.98, 6.82, 6.82, 10.05, 7.35, 8.94, 8.93, 7.66, 10.97, 7.42, 10.09, 11.32, 7.53, 7.61, 7.93, 8.7, 11.73, 7.12, 6.4, 8.56, 8.71, 6.73, 8.35, 9.96, 5.28, 8.89, 9.86, 12.04, 8.81, 7.57, 7.75, 6.73, 3.92, 8.66, 9.13, 5.07, 11.38, 6.77, 10.29, 9.38, 8.49, 8.51, 8.15, 7.23, 7.64, 8.72, 8.51, 7.1, 7.48, 10.09, 7.37, 6.4, 6.81, 9.29, 10.28, 3.9, 7.38, 8.44, 8.12, 11.11, 9.92, 7.57, 8.34, 11.08, 6.73, 9.82, 6.85, 6.54, 6.55, 3.14, 8.17, 10.66, 12.42, 9.39, 9.37, 3.86, 8.92, 8.75, 7.55, 7.81, 7.62, 6.18, 4.18, 5.85, 8.82, 9.71, 8.1, 7.69, 10.14, 9.34, 7.1, 9.47, 6.03, 3.23, 7.76, 5.56, 6.23, 6.07, 10.54, 6.43, 7.7, 6.39, 8.82, 8.51, 9.4, 9.02, 8.36, 9.71, 8.88, 8.75, 6.86, 6.13, 11.26, 7.19, 12.04, 6.54, 6.62, 6.11, 8.88, 7.51, 4.29, 7.94, 7.9, 11.85, 7.86, 10.98, 8.47, 11.6, 6.78, 6.38, 8.2, 6.69, 8.99, 7.08, 8.82, 9.16, 8.63, 9.95, 7.82, 6.34, 6.73, 9.24, 3.97, 9.7, 7.94, 5.9, 11.67, 11.22, 11.42, 9.32, 7.23, 6.94, 5.78, 9.54, 9.44, 5.47, 9.32, 8.35, 9.2, 6.75, 9.24, 8.13, 8.95, 10.42, 5.34, 8.97, 9.91, 9.29, 6.7, 10.74, 7.12, 7.16, 9.18, 9.06, 7.43, 6.93, 6.28, 4.88, 4.29, 9.78, 6.76, 6.73, 8.64, 8.95, 5.43, 5.46, 8.37, 5.97, 8.18, 10.42, 8.77, 6.9, 5.99, 9.36, 9.24, 8.37, 9.62, 5.91, 11.48, 7.02, 4.52, 3.86, 6.07, 8.4, 9.03, 10.06, 5.23, 6.39, 10.04, 6.95, 6.97, 5.97, 7.95, 11.25, 3.08, 8.7, 6.01, 8.53, 11.69, 8.52, 5.73, 5.05, 11.03, 9.19, 8.78, 8.59, 10.41, 7.75, 10.41, 11.09, 9.19, 7.52, 6.82, 11.03, 8.94, 8.57, 5.97, 8.85, 8.0, 9.59, 8.17, 6.04, 7.26, 4.59, 8.05, 8.86, 6.98, 8.81, 6.9, 7.29, 8.75, 8.38, 7.45, 5.72, 9.02, 7.36, 7.79, 11.81, 11.76, 6.98, 9.45, 8.45, 4.8, 6.21, 10.31, 6.32, 9.7, 4.56, 7.83, 5.79, 5.79, 7.88, 8.37, 7.45, 5.93, 7.02, 9.25, 7.76, 4.11, 7.28, 7.18, 6.37, 7.2, 8.08, 9.36, 9.37, 7.6, 13.0, 7.46, 6.16, 5.65, 9.08, 9.49, 10.23, 8.53, 6.42, 11.09, 10.09, 8.07, 7.86, 6.9, 4.42, 6.03, 6.21, 6.93, 9.39, 8.05, 7.22, 3.47, 8.37, 9.15, 5.89, 9.26, 6.15, 7.4, 7.45, 6.04, 9.56, 7.84, 9.02, 9.78, 8.51, 8.46, 6.15, 7.73, 9.29, 9.0, 7.51, 6.17, 10.87, 6.63, 9.97, 11.52, 7.77, 8.21, 8.54, 7.57, 9.06, 9.81, 10.82, 4.77, 11.91, 8.48, 6.56, 9.95, 7.68, 10.63, 5.29, 6.97, 7.68, 11.44, 9.36, 11.0, 6.71, 9.31, 6.57, 7.26, 5.91, 7.98, 8.04, 9.92, 9.48, 5.83, 3.61, 11.42, 7.1, 8.71, 8.3, 7.52, 8.97, 10.83, 6.04, 9.53, 12.09, 7.46, 10.48, 7.85, 8.83, 8.56, 8.98, 6.96, 9.82, 6.97, 6.61, 6.59, 11.94, 7.84, 6.39, 8.44, 7.58, 8.06, 10.32, 8.35, 9.91, 8.46, 8.7, 9.52, 9.04, 8.28, 7.99, 8.46, 14.78, 10.48, 9.05, 12.53, 7.49, 6.25, 6.71, 4.68, 9.72, 8.1, 5.37, 3.65, 9.54, 8.15, 9.27, 7.84, 9.55, 11.73, 7.03, 6.34, 7.45, 9.49, 7.33, 7.08, 8.73, 7.56, 4.91, 7.95, 7.41, 10.61, 7.37, 6.74, 7.35, 12.26, 6.4, 8.6, 8.4, 8.57, 6.69, 4.72, 6.42, 5.05, 8.73, 7.08, 5.14, 6.91, 9.34, 8.82, 8.15, 6.08, 6.83, 6.84, 9.44, 9.61, 5.31, 9.67, 9.06, 7.88, 8.64, 8.79, 8.37, 9.19, 6.04, 6.34, 8.65, 6.89, 7.92, 5.55, 4.48, 9.65, 11.75, 7.61, 10.3, 8.77, 6.69, 8.74, 9.81, 10.03, 11.37, 7.88, 11.45, 8.99, 9.9, 4.39, 4.04, 7.82, 7.66, 8.84, 7.0, 6.59, 7.62, 11.5, 11.11, 10.25, 8.09, 5.21, 7.01, 10.75, 6.38, 7.13, 5.57, 7.31, 8.01, 8.9, 9.44, 7.25, 8.47, 6.18, 8.85, 3.46, 9.79, 8.61, 8.98, 7.83];
